(set-logic QF_S)
(declare-fun _var_0xINPUT_41146_() String)
(declare-fun __woorpje_diseq_pref0_() String)
(declare-fun __woorpje_diseq_suf_l0_() String)
(declare-fun __woorpje_diseq_suf_r0_() String)
(declare-fun __woorpje_diseq_pref1_() String)
(declare-fun __woorpje_diseq_suf_l1_() String)
(declare-fun __woorpje_diseq_suf_r1_() String)
(assert (=(str.++ _var_0xINPUT_41146_  "")(str.++ __woorpje_diseq_pref1_  "3" __woorpje_diseq_suf_l1_  "")) )
(assert (=(str.++  "6JX7G3VKFq" "")(str.++ __woorpje_diseq_pref1_  "q" __woorpje_diseq_suf_r1_  "")) )
(assert  (<= (* (str.len _var_0xINPUT_41146_)(- 1)) (- 1)) )
(check-sat)
